         258
  Built with Packmol                                             
  K            8.363826       17.303643       19.492942
  K           13.821684        8.059451        7.636226
  K            4.615945       19.675616        1.856660
  K            5.878212        1.904534        4.988642
  K           12.823871        2.915101        5.285587
  K           18.126838       21.936417        0.850288
  K           16.537223        7.110871       11.361523
  K           18.739131       22.989406        4.415216
  K           14.412603        4.522238        4.180392
  K           19.736115       19.928810        1.297519
  K           17.186482       19.620576       11.170925
  K            1.439670       21.366640        1.009513
  K            3.387615       13.222051       12.538468
  K            3.618192        8.279643        3.995041
  K            1.317065       21.604122       20.552462
  K           22.668066        6.063647       16.333307
  K            4.730313       11.356867       22.033436
  K           10.684903        6.709001        7.746089
  K            6.313032        7.305213        5.908099
  K           11.343045        0.292893        7.598492
  K           14.996602       13.993662       12.438126
  K            9.192015       16.543781       10.778229
  K           12.240592       21.369805        4.317179
  K           17.387516        4.156448       20.933240
  K            8.191145       15.820399        6.804681
  K            7.604591        4.425115       20.777133
  K           12.799791       12.672278        9.485280
  K           19.248425        1.802897        6.273461
  K           20.398957        2.563527       10.541579
  K           13.389747        6.231354       20.713348
  K           13.177272       12.380517       12.327900
  K            9.150754        8.348808        6.855293
  K            5.195800       16.775284        4.139248
  K           13.356672       20.095614       13.860292
  K           18.503707       15.616398        7.323859
  K            9.865900        7.575860        1.686520
  K            1.938564        3.088668        3.745181
  K            8.740036        5.939002        6.464397
  K            6.449632        9.822492       11.035885
  K           18.763009       12.947965        3.668876
  K           17.415494        9.768566       18.086060
  K           21.467586       21.234502        8.176059
  K            8.108250        5.638324       10.609970
  K           15.096161        5.202314        9.314506
  K            9.006740        7.910828       22.999995
  K           12.632423       16.607511       11.134719
  K           14.571102        0.005571       16.680912
  K            6.964179       19.883476       22.839674
  K            8.742490       10.376136       21.501177
  K           18.720286       17.560173       18.513051
  K           23.006872        0.871643       21.562518
  K           13.057716       15.729277        6.212126
  K            9.941313        8.553088       14.192264
  K            5.643436       17.434661       20.336507
  K           10.760705       17.708457       17.585082
  K           14.630328       19.237629        1.084901
  K           19.759857        1.399783       19.297153
  K            5.036246       21.517974       10.363976
  K            8.136551       14.030001       16.086133
  K            5.792874        5.343642       12.613842
  K            2.666619       16.672105        3.985650
  K           19.949885        7.384021       12.379050
  K           10.840896        7.844188       16.648287
  K           17.584069       11.977759       14.445535
  K           19.257311        8.445891        6.810572
  K           10.845436        1.859983        4.401284
  K            8.723442       22.554728        4.356955
  K           14.631464       10.217133       10.084593
  K            7.598127       14.947820       11.933997
  K           19.666535       10.818390        0.427675
  K            5.714996       21.503813        6.288583
  K           11.656535        3.954158       19.614677
  K           15.217535       10.580865        7.447188
  K           13.557550        7.468708        3.675407
  K           16.572624       14.132797        0.000006
  K            8.421080        4.777987        1.231844
  K           19.483711       19.135983        6.751518
  K           19.970395        4.250452       16.580422
  K           16.930361       13.858602       22.233349
  K            1.538714        2.315318       18.515457
  K            6.404072       18.570524       12.875255
  K           10.160477        2.209164       18.841279
  K           15.938354        8.061500        5.026302
  K           16.448079        4.701466       14.667636
  K            7.599091        6.664625        2.526590
  K            6.255435       11.161197        7.651976
  K           13.490595       10.618739       17.827612
  K           12.091391        5.512589        5.108841
  K           18.399115        9.588050        4.621961
  K           10.055699       20.523672       12.534036
  K            4.462060       19.341047       17.710604
  K           15.323976        0.016724        4.808551
  K           10.933552       13.115682        1.480660
  K           21.515985        1.323361       15.908504
  K            3.273945       21.697204       16.071331
  K           17.764156       19.105546       13.982712
  K            9.344641       15.957530       14.128365
  K           19.794478       20.510724       13.741342
  K           16.223957       18.452718        6.606539
  K            0.585615        3.303189        8.467990
  K           16.261879       16.657383       19.808126
  K            9.567171        3.188829       10.318428
  K           20.452453       17.497356       11.285665
  K           14.087506       22.915391       10.347830
  K            3.636108       19.853328       21.517987
  K           21.417835       12.290060       19.689127
  K            9.147966        3.350415       14.495025
  K            8.024413       21.822102       17.395320
  K            2.289887       12.467790        5.912718
  K           13.267332        8.831376       15.408235
  K           11.419556       14.111748       22.409050
  K           12.325915        4.761032       17.090659
  K            3.614641       13.542385       15.587459
  K            8.383590       13.711106        5.119602
  K           15.219094        0.131489        8.405346
  K           13.503806       17.215880       22.999805
  K           22.456946        4.256594       20.293047
  K            4.627393       19.842944        8.564782
  K           18.641895       16.147410        1.098217
  K            5.098525        9.136514       17.831469
  K           11.004638        9.553525       12.183483
  K            7.476613        5.155438       16.978277
  K            9.410793        0.000013       18.074598
  K           21.796620       13.152857       15.413585
  K           11.031953       10.033362        0.022378
  K            8.465971       12.242108       10.235089
  K            7.123790        1.950975       20.350787
  K           16.240069       21.945909       11.781192
  Cl           2.560630        8.386422       17.365417
  Cl           4.869809       15.173042        7.608384
  Cl          11.493509       14.143096       12.534608
  Cl           4.587544       14.219612       20.316066
  Cl          19.102420        0.038034        3.201773
  Cl          21.543140       22.853910       22.141014
  Cl          13.259335       16.151159       20.467541
  Cl          15.220206       11.194842       20.208931
  Cl          16.231803       22.734975        8.837807
  Cl          17.676995        7.341698        8.439705
  Cl           6.919517        7.349783        8.351911
  Cl          12.901004       10.702028        1.940601
  Cl           8.830882        0.065049       15.449175
  Cl          20.463138        5.192595       14.382558
  Cl          12.538666       18.804272       19.346724
  Cl          17.093407       15.437857       10.826531
  Cl          11.426970        1.269061       16.719948
  Cl          14.615060       14.022452        2.243987
  Cl           1.971623        4.264197       21.200221
  Cl          22.400645        5.859399       13.105163
  Cl           4.201828        7.995945        7.619917
  Cl           7.881866       18.029349        2.822728
  Cl           1.152146        8.673064       21.526272
  Cl           1.869513       16.278141        6.952866
  Cl          13.792285       13.162972       16.153865
  Cl          18.234350        2.310138        8.637391
  Cl           2.401822       20.714222        5.711967
  Cl          17.137550        0.523582       19.911009
  Cl          20.331148       14.596767       20.606266
  Cl          13.990510       20.584057       20.965588
  Cl          21.778679       10.422056       15.783634
  Cl           9.502088        2.862975        7.724373
  Cl          16.960244        5.300838        5.026802
  Cl          16.704387       19.599828       17.715230
  Cl          16.169704        7.280705       23.000000
  Cl           2.977601        1.107336        2.341216
  Cl          12.161972        0.984268       12.455801
  Cl           6.546363       16.032644        9.475822
  Cl          17.185240       11.428541        0.276607
  Cl           8.251029       11.809892        1.826328
  Cl          19.316520        9.864306       22.453164
  Cl           7.708304        7.229617       15.300141
  Cl           2.306747        3.597195       16.455136
  Cl          19.879744        5.234335        7.606537
  Cl          15.885194       19.184861       22.086210
  Cl           8.531685       21.004441        1.170464
  Cl          21.060939        2.311329       21.144664
  Cl           3.861181        5.832473        3.952345
  Cl           5.078731       10.899016       14.478371
  Cl           0.756830       10.496628        3.097460
  Cl          10.519243       11.195477        5.359691
  Cl           5.193387        2.331628        2.201132
  Cl           8.714891       11.914212       18.288302
  Cl          12.515026       10.904711       22.870899
  Cl          18.798285       22.505409       20.295582
  Cl          14.626193       19.153121        8.721244
  Cl          15.179504       10.977102        2.801633
  Cl          22.944463       13.087809       11.818592
  Cl          15.085656        9.520059       12.352612
  Cl           0.000000        7.612245        2.951189
  Cl           7.807154       15.297060        1.927692
  Cl           6.011173        5.923140        0.000000
  Cl          14.713565        4.836649       18.597520
  Cl           5.873736        0.326975       18.950696
  Cl          14.985346       13.590931        8.733146
  Cl          17.405524        6.507135        0.572433
  Cl          13.237940        2.578892       14.184579
  Cl          21.483212       14.678675        0.000000
  Cl           2.591186       16.924854        9.338372
  Cl           1.110066       13.778462       11.307124
  Cl          19.834283       14.743575       17.422490
  Cl           0.645227       23.000000       23.000000
  Cl           0.262966       19.591207        5.723853
  Cl          13.086567       14.132004        4.385767
  Cl          18.276955       15.921002       14.252964
  Cl          21.423365        0.750093        7.263850
  Cl          21.215008       17.184292        1.595879
  Cl          21.090057        6.993886        2.847678
  Cl          10.590629       14.365782       16.284610
  Cl          21.327588       16.579175        7.013162
  Cl           4.492282       22.217898       13.142173
  Cl          19.807397       13.217841       13.008117
  Cl          12.066197       22.298585       16.681568
  Cl           4.174234       17.166384       12.850893
  Cl          20.702888       10.673467        3.004527
  Cl           8.789510        1.513913       12.780777
  Cl          18.525105       11.178495       20.380146
  Cl          18.177797       13.492209       18.667916
  Cl           5.168021       15.769740       17.994032
  Cl          10.776573       18.427908        7.603173
  Cl          20.320832       22.962320        6.247344
  Cl           3.236048        9.030714       13.610546
  Cl          22.375128        2.294580       12.156181
  Cl          14.537158       15.864936        9.534316
  Cl           8.461487       10.548659       14.390064
  Cl           2.494598       10.377118        0.695486
  Cl           6.692916       10.583175        4.695421
  Cl           0.020992       15.052404        3.319856
  Cl          14.402026        6.854635       14.604228
  Cl           8.130912        4.616345        4.111732
  Cl           1.852813        5.930681       15.972082
  Cl          22.833985       12.210608        6.662365
  Cl           2.268312       10.602901       19.165426
  Cl           3.977934        4.321027       19.082610
  Cl          20.876380        1.836927        3.324374
  Cl          17.568459       10.355946       12.398358
  Cl           1.383733       14.726539       22.516661
  Cl           6.652520        3.170923        7.029729
  Cl           1.809327        5.087256       11.859339
  Cl          22.383045        3.553645       16.082333
  Cl          10.691456       10.247958        8.560727
  Cl          10.423550       15.915779        8.045502
  Cl          22.655383        9.264575        4.398499
  Cl          21.009389       20.575095        3.339230
  Cl          21.224512        8.289400       14.674025
  Cl          12.347727       19.324174       16.614203
  Cl           1.284035       14.554565       14.984319
  Cl           5.673610        3.180601       10.387370
  Cl           8.481174       18.539148       16.801416
  Cl          20.846985        6.121087       18.430345
  Cl          22.329973       11.446040        1.324880
  Cl          11.435358       15.373309       18.958513
  Cl          12.891576       20.918167        8.123277
  Cl           4.212777       22.330487       20.573328
  Cl           6.521822        2.923101       12.797231
  Cl           0.000000       21.603590       15.802125
  Cl           5.520834       16.893210        0.304475
  Cl          15.960636       21.906457        3.714826
  Ar          23.000000       16.262383       10.321437
  Ar          23.007029        0.003699       14.524744
